
Gurobi 11.0.3 (linux64) logging started Mon 18 Nov 2024 07:53:14 PM CST

Set parameter LogFile to value "/home/dlcole3/graph_abstraction/hierarchical_graphs/git_storage/CS1/HP_low_reserves/gurobi_logs/serial/logfile_DA_6.log"
Set parameter TimeLimit to value 900

Gurobi 11.0.3 (linux64) logging started Mon 18 Nov 2024 07:53:15 PM CST

Set parameter LogFile to value "/home/dlcole3/graph_abstraction/hierarchical_graphs/git_storage/CS1/HP_low_reserves/gurobi_logs/serial/logfile_DA_6.log"
Gurobi Optimizer version 11.0.3 build v11.0.3rc0 (linux64 - "Ubuntu 18.04.3 LTS")

CPU model: Intel(R) Xeon(R) CPU E5-2698 v4 @ 2.20GHz, instruction set [SSE2|AVX|AVX2]
Thread count: 40 physical cores, 80 logical processors, using up to 20 threads

Optimize a model with 35850 rows, 31725 columns and 164765 nonzeros
Model fingerprint: 0x806f3bdb
Variable types: 19950 continuous, 11775 integer (11775 binary)
Coefficient statistics:
  Matrix range     [5e-02, 2e+04]
  Objective range  [1e+00, 8e+04]
  Bounds range     [5e-02, 2e+05]
  RHS range        [2e-15, 7e+03]
Presolve removed 4489 rows and 5851 columns
Presolve time: 0.79s
Presolved: 31361 rows, 25874 columns, 144671 nonzeros
Variable types: 15457 continuous, 10417 integer (10417 binary)
Found heuristic solution: objective 1.027483e+09
Found heuristic solution: objective 8.965126e+08
Found heuristic solution: objective 6.199831e+08
Deterministic concurrent LP optimizer: primal and dual simplex
Showing primal log only...

Concurrent spin time: 0.01s

Solved with dual simplex

Root relaxation: objective 1.143222e+07, 12973 iterations, 0.81 seconds (0.56 work units)

    Nodes    |    Current Node    |     Objective Bounds      |     Work
 Expl Unexpl |  Obj  Depth IntInf | Incumbent    BestBd   Gap | It/Node Time

     0     0 1.1432e+07    0   95 6.1998e+08 1.1432e+07  98.2%     -    2s
H    0     0                    6.190638e+08 1.1432e+07  98.2%     -    2s
H    0     0                    2.096383e+07 1.1432e+07  45.5%     -    3s
     0     0 1.1439e+07    0  184 2.0964e+07 1.1439e+07  45.4%     -    3s
     0     0 1.1458e+07    0  164 2.0964e+07 1.1458e+07  45.3%     -    4s
     0     0 1.1458e+07    0  170 2.0964e+07 1.1458e+07  45.3%     -    4s
     0     0 1.1458e+07    0  151 2.0964e+07 1.1458e+07  45.3%     -    4s
     0     0 1.1458e+07    0  179 2.0964e+07 1.1458e+07  45.3%     -    5s
     0     0 1.1458e+07    0  179 2.0964e+07 1.1458e+07  45.3%     -    5s
     0     0 1.1458e+07    0  179 2.0964e+07 1.1458e+07  45.3%     -    6s
     0     2 1.1458e+07    0  179 2.0964e+07 1.1458e+07  45.3%     -    7s
     7    16 1.1465e+07    3   75 2.0964e+07 1.1462e+07  45.3%   366   10s
H   31    52                    1.257831e+07 1.1464e+07  8.86%   244   11s
H   32    52                    1.246692e+07 1.1464e+07  8.05%   241   11s
H   37    52                    1.155750e+07 1.1464e+07  0.81%   232   11s
H   41    52                    1.155419e+07 1.1464e+07  0.78%   217   11s
H   57    64                    1.149172e+07 1.1466e+07  0.22%   211   12s
   111    56 1.1476e+07    8  104 1.1492e+07 1.1466e+07  0.22%   152   15s
   296   140 1.1479e+07   15   65 1.1492e+07 1.1466e+07  0.22%   100   22s
H  299   140                    1.148631e+07 1.1466e+07  0.18%  99.4   22s
H  304   140                    1.148568e+07 1.1466e+07  0.17%  98.5   22s
   636   176     cutoff   16      1.1486e+07 1.1469e+07  0.15%  77.5   25s
  1321   261 1.1483e+07   14   21 1.1486e+07 1.1469e+07  0.15%  72.7   31s

Cutting planes:
  Gomory: 23

Explored 1726 nodes (132947 simplex iterations) in 34.62 seconds (37.38 work units)
Thread count was 20 (of 80 available processors)

Solution count 10: 1.14857e+07 1.14857e+07 1.14863e+07 ... 6.19064e+08

Optimal solution found (tolerance 1.00e-03)
Best objective 1.148567602518e+07, best bound 1.147483022833e+07, gap 0.0944%

User-callback calls 10660, time in user-callback 0.01 sec
